========================================================== 
File name: C:\DEGR\assets\definitions\MSRCPSP_Gen\100_10_64_10_C.def
Creation date: Wed May 03 10:38:19 CEST 2023
Website: http://imopse.ii.pwr.edu.pl/ 
Reference: 
Myszkowski P. B., Skowronski M. E., Olech L., Oslizlo K., 
Hybrid Ant Colony Optimization in solving Multi-Skill Resource-Constrained Project Scheduling Problem, 
Soft Computing, DOI: DOI 10.1007/s00500-014-1455-x 
========================================================== 
General characteristics: 
Tasks: 100
Resources: 10
Precedence relations: 63
Number of skill types: 10
========================================================== 
ResourceID 	 Salary 	 Skills 
1	 	 	14.8	 	 Q4: 0 	  Q3: 3 	  Q9: 0 	 
2	 	 	95.5	 	 Q0: 1 	 
3	 	 	36.0	 	 Q1: 0 	  Q6: 2 	  Q3: 2 	  Q4: 0 	  Q5: 0 	  Q2: 0 	  Q7: 2 	  Q9: 3 	 
4	 	 	94.6	 	 Q0: 2 	  Q9: 2 	  Q7: 1 	  Q1: 1 	  Q4: 2 	  Q8: 2 	 
5	 	 	97.3	 	 Q7: 0 	  Q5: 2 	  Q2: 2 	  Q4: 0 	  Q9: 2 	  Q3: 1 	 
6	 	 	41.2	 	 Q6: 1 	  Q2: 2 	  Q5: 0 	  Q9: 1 	  Q4: 0 	  Q0: 0 	  Q8: 2 	 
7	 	 	71.5	 	 Q1: 1 	  Q8: 0 	  Q9: 3 	  Q0: 3 	 
8	 	 	26.7	 	 Q6: 2 	 
9	 	 	59.9	 	 Q7: 2 	  Q5: 1 	  Q3: 0 	  Q1: 3 	 
10	 	 	26.6	 	 Q5: 3 	  Q7: 0 	  Q3: 3 	  Q6: 0 	  Q9: 2 	  Q8: 2 	  Q2: 1 	 
========================================================== 
TaskID 	 Duration 	 Skill 	 Predecessor IDs 
1	23	Q2:	0
2	30	Q7:	0
3	29	Q9:	3
4	19	Q4:	0
5	30	Q5:	3
6	38	Q6:	1
7	37	Q1:	3
8	19	Q4:	0
9	33	Q7:	0
10	34	Q8:	0
11	18	Q3:	3	1
12	19	Q1:	3
13	24	Q6:	2
14	35	Q9:	1
15	37	Q9:	3
16	30	Q4:	2
17	33	Q8:	2
18	35	Q3:	1
19	38	Q0:	0
20	16	Q0:	1
21	16	Q3:	1	7
22	32	Q6:	1
23	37	Q3:	3
24	18	Q4:	0
25	27	Q4:	2
26	12	Q6:	1	9
27	40	Q2:	2
28	37	Q5:	1
29	32	Q7:	0	10
30	40	Q0:	2
31	26	Q9:	3
32	17	Q0:	3
33	9	Q4:	2
34	35	Q0:	2	2
35	17	Q3:	1
36	21	Q6:	1
37	16	Q5:	1
38	38	Q0:	2
39	36	Q5:	3	24	28
40	21	Q7:	2
41	11	Q4:	0	21
42	10	Q3:	2
43	40	Q5:	3
44	16	Q2:	0
45	19	Q6:	0	41	15
46	32	Q0:	3
47	15	Q9:	2	19
48	11	Q3:	0	8
49	17	Q7:	1	47
50	17	Q8:	0	21
51	27	Q5:	2
52	27	Q7:	0
53	25	Q5:	2
54	11	Q3:	2
55	14	Q0:	1	37
56	21	Q1:	0
57	25	Q7:	0
58	13	Q4:	2	41	29	19
59	40	Q2:	0	46
60	23	Q6:	1	36
61	36	Q2:	1
62	21	Q2:	2	10
63	28	Q4:	0	56
64	38	Q5:	1	44
65	28	Q2:	1	60
66	21	Q3:	1
67	26	Q6:	1	46	61
68	10	Q3:	3	39
69	20	Q9:	0	60
70	27	Q2:	1	35
71	25	Q5:	3
72	29	Q5:	1	22	51
73	38	Q9:	0	64
74	38	Q9:	1	12	60
75	32	Q7:	2	24
76	39	Q6:	2	33
77	12	Q2:	1
78	12	Q1:	3	59	47
79	11	Q7:	0
80	20	Q0:	1	59
81	9	Q1:	0	35
82	30	Q0:	1
83	15	Q1:	1
84	19	Q1:	1	81	8
85	40	Q0:	2
86	17	Q0:	1	24	81	40
87	23	Q6:	2	26	21
88	37	Q6:	2
89	11	Q6:	0	64	76
90	36	Q3:	0	60
91	24	Q1:	1
92	16	Q5:	2	83	24	53
93	29	Q4:	2
94	36	Q5:	3	7	34	30
95	22	Q3:	0	61
96	20	Q9:	3
97	32	Q5:	0	30	43
98	20	Q5:	1	31	44
99	31	Q9:	3
100	22	Q2:	2	46	73
========================================================== 